Mo S 
                                                  1
                    3.16599988940000010018138709711                                                  0                                                  0
                   -1.58299994470000005009069354855                    2.74183633260000014786328392802                                                  0
                                                  0                                                  0                                                 10
    1    2
Direct 
                   0.33333447544446304089404975457                   0.666665561222259506202192369528                   0.500573333000000064707535329944 
                  0.666667808777767767480781913036                   0.333332227888870069598681311618                   0.338353036102265303242120353389 
                  0.666667808777768655659201613162                   0.333332227888870347154437467907                     0.6627936298977348261729503065 
